[[5, 15, 38, 24, 48, 46, 37, 40, 39, 36, 34, 35, 44, 49, 22, 32, 45, 19, 9, 10, 8, 41, 3, 17], [18, 31, 21, 42, 7, 2, 30, 23, 20, 50, 16, 29, 47], [26, 28, 27, 13, 14, 52, 11, 12, 51, 33, 43, 4, 25, 6]]